qbf_easy_train/easy_2558_UNSAT.qdimacs
p cnf 40 119
a 16 26 7 0
e 1 2 3 4 5 6 8 9 10 11 12 13 14 15 17 18 19 20 21 22 23 24 25 27 28 29 30 31 32 33 34 35 36 37 38 39 40 0
-3 1 0
-3 -2 0
-1 2 3 0
5 -3 0
5 -4 0
3 4 -5 0
7 -6 0
7 3 0
6 -3 -7 0
-8 -5 0
-8 -7 0
5 7 8 0
-9 4 -10 0
9 -4 -10 0
-9 -4 10 0
9 4 10 0
-11 -4 0
-11 -2 0
4 2 11 0
-12 2 0
-12 -11 0
-2 11 12 0
9 12 -13 0
-9 -12 -13 0
9 -12 13 0
-9 12 13 0
-3 -13 -14 0
3 13 -14 0
-3 13 14 0
3 -13 14 0
15 -14 0
15 9 0
14 -9 -15 0
-16 11 0
-16 15 0
-11 -15 16 0
-10 16 -17 0
10 -16 -17 0
-10 -16 17 0
10 16 17 0
18 -9 -19 0
-18 9 -19 0
18 9 19 0
-18 -9 19 0
-19 -2 -20 0
19 2 -20 0
-19 2 20 0
19 -2 20 0
-21 20 0
-21 9 0
-20 -9 21 0
22 -4 0
22 13 0
4 -13 -22 0
21 -22 -23 0
-21 22 -23 0
21 22 23 0
-21 -22 23 0
24 -15 -25 0
-24 15 -25 0
24 15 25 0
-24 -15 25 0
26 -19 0
26 18 0
19 -18 -26 0
-27 2 0
-27 -26 0
-2 26 27 0
-29 11 0
-29 28 0
-11 -28 29 0
-6 14 -30 0
6 -14 -30 0
-6 -14 30 0
6 14 30 0
-31 -29 0
-31 30 0
29 -30 31 0
-27 -31 -32 0
27 31 -32 0
-27 31 32 0
27 -31 32 0
33 25 0
33 -32 0
-25 32 -33 0
-2 -18 -34 0
2 18 -34 0
-2 18 34 0
2 -18 34 0
35 12 0
35 -13 0
-12 13 -35 0
36 34 0
36 35 0
-34 -35 -36 0
37 -33 0
37 36 0
33 -36 -37 0
-38 23 0
-38 -37 0
-23 37 38 0
-39 17 0
-39 -38 0
-17 38 39 0
40 -8 0
40 39 0
8 -39 -40 0
7 -28 -6 0
-14 9 12 6 -15 0
5 13 -1 0
16 -31 33 -2 25 17 27 0
-5 -9 0
-2 -33 -11 -21 36 0
-15 -14 33 12 0
-32 12 -26 0
4 27 39 0
-4 -3 39 27 23 -31 -15 0
-6 32 -9 0
40 0
