sat_easy_train/easy_2558_UNSAT.dimacs
p cnf 108 348
-4 -2 0
-4 -3 0
2 3 4 0
-5 1 0
-5 4 0
-1 -4 5 0
-7 -5 0
-7 -6 0
5 6 7 0
-9 -7 0
-9 8 0
7 -8 9 0
13 -11 0
13 12 0
11 -12 -13 0
-14 -10 0
-14 13 0
10 -13 14 0
15 -7 0
15 -10 0
7 10 -15 0
16 -14 0
16 -15 0
14 15 -16 0
17 9 0
17 16 0
-9 -16 -17 0
-18 -10 0
-18 1 0
10 -1 18 0
21 -19 0
21 -20 0
19 20 -21 0
-22 2 0
-22 -21 0
-2 21 22 0
-24 -8 0
-24 -23 0
8 23 24 0
25 -24 0
25 3 0
24 -3 -25 0
-14 25 -26 0
14 -25 -26 0
-14 -25 26 0
14 25 26 0
-27 22 0
-27 26 0
-22 -26 27 0
-28 4 -29 0
28 -4 -29 0
-28 -4 29 0
28 4 29 0
30 27 0
30 29 0
-27 -29 -30 0
-31 18 0
-31 30 0
-18 -30 31 0
32 -17 0
32 -31 0
17 31 -32 0
33 -3 0
33 -11 0
3 11 -33 0
34 4 0
34 -33 0
-4 33 -34 0
-35 4 0
-35 -12 0
-4 12 35 0
-36 11 0
-36 -28 0
-11 28 36 0
36 37 0
-36 37 0
38 15 0
38 37 0
-15 -37 -38 0
39 35 0
39 -38 0
-35 38 -39 0
40 -34 0
40 39 0
34 -39 -40 0
-41 4 0
-41 -20 0
-4 20 41 0
42 8 0
42 8 0
-8 -42 0
43 -42 0
43 8 0
42 -8 -43 0
44 -41 0
44 -43 0
41 43 -44 0
-45 -33 0
-45 44 0
33 -44 45 0
-40 45 -46 0
40 -45 -46 0
-40 -45 46 0
40 45 46 0
-23 -47 0
23 -47 0
-47 12 -48 0
47 -12 -48 0
-47 -12 48 0
47 12 48 0
-51 -50 0
-51 -50 0
50 51 0
52 49 0
52 -51 0
-49 51 -52 0
52 -22 -53 0
-52 22 -53 0
52 22 53 0
-52 -22 53 0
54 5 0
54 -23 0
-5 23 -54 0
-55 -13 0
-55 -33 0
13 33 55 0
56 -54 0
56 55 0
54 -55 -56 0
-36 44 -57 0
36 -44 -57 0
-36 -44 57 0
36 44 57 0
19 -11 -58 0
-19 11 -58 0
19 11 58 0
-19 -11 58 0
-59 -58 0
-59 19 0
58 -19 59 0
-60 -57 0
-60 -59 0
57 59 60 0
57 52 -61 0
-57 -52 -61 0
57 -52 61 0
-57 52 61 0
-62 -60 0
-62 61 0
60 -61 62 0
56 62 -63 0
-56 -62 -63 0
56 -62 63 0
-56 62 63 0
64 -26 0
64 -3 0
26 3 -64 0
65 -63 0
65 64 0
63 -64 -65 0
53 65 -66 0
-53 -65 -66 0
53 -65 66 0
-53 65 66 0
-67 48 0
-67 -66 0
-48 66 67 0
-68 -46 0
-68 67 0
46 -67 68 0
-69 32 0
-69 -68 0
-32 68 69 0
47 -43 -70 0
-47 43 -70 0
47 43 70 0
-47 -43 70 0
19 71 -72 0
-19 -71 -72 0
19 -71 72 0
-19 71 72 0
70 -72 -73 0
-70 72 -73 0
70 72 73 0
-70 -72 73 0
22 -23 -74 0
-22 23 -74 0
22 23 74 0
-22 -23 74 0
-75 73 0
-75 74 0
-73 -74 75 0
-76 26 0
-76 4 0
-26 -4 76 0
51 19 -77 0
-51 -19 -77 0
51 -19 77 0
-51 19 77 0
-76 -77 -78 0
76 77 -78 0
-76 77 78 0
76 -77 78 0
79 8 0
79 -13 0
-8 13 -79 0
80 -25 0
80 4 0
25 -4 -80 0
-81 79 0
-81 -80 0
-79 80 81 0
-78 81 -82 0
78 -81 -82 0
-78 -81 82 0
78 81 82 0
83 75 0
83 -82 0
-75 82 -83 0
84 19 0
84 -15 0
-19 15 -84 0
85 37 0
85 -1 0
-37 1 -85 0
-84 85 -86 0
84 -85 -86 0
-84 -85 86 0
84 85 86 0
87 21 -88 0
-87 -21 -88 0
87 -21 88 0
-87 21 88 0
-21 3 -89 0
21 -3 -89 0
-21 -3 89 0
21 3 89 0
-90 -89 0
-90 23 0
89 -23 90 0
-88 90 -91 0
88 -90 -91 0
-88 -90 91 0
88 90 91 0
-92 -86 0
-92 -91 0
86 91 92 0
-93 -83 0
-93 -92 0
83 92 93 0
-94 69 0
-94 93 0
-69 -93 94 0
24 -58 -95 0
-24 58 -95 0
24 58 95 0
-24 -58 95 0
-50 -33 -96 0
50 33 -96 0
-50 33 96 0
50 -33 96 0
-19 -15 -97 0
19 15 -97 0
-19 15 97 0
19 -15 97 0
98 96 0
98 -97 0
-96 97 -98 0
21 -42 -99 0
-21 42 -99 0
21 42 99 0
-21 -42 99 0
100 3 0
100 10 0
-3 -10 -100 0
101 50 0
101 100 0
-50 -100 -101 0
-49 101 -102 0
49 -101 -102 0
-49 -101 102 0
49 101 102 0
5 24 -103 0
-5 -24 -103 0
5 -24 103 0
-5 24 103 0
104 -102 0
104 103 0
102 -103 -104 0
105 99 0
105 104 0
-99 -104 -105 0
106 -98 0
106 105 0
98 -105 -106 0
95 106 -107 0
-95 -106 -107 0
95 -106 107 0
-95 106 107 0
108 -94 0
108 107 0
94 -107 -108 0
-92 26 -49 -17 1 7 0
-29 -26 0
-39 -70 -54 0
-1 -47 -3 0
-77 41 -103 46 0
-11 -42 -24 -55 61 0
42 -19 0
-51 52 -69 13 65 0
25 -36 -81 65 -48 44 0
-4 -93 -49 101 39 -57 0
53 58 87 0
-37 -4 0
-16 70 24 -105 0
87 -48 0
75 -97 -82 8 0
42 -61 59 -25 81 0
-102 -69 -35 -70 -8 0
-11 66 -42 -78 -75 0
79 21 -93 0
-68 -33 -107 -5 98 0
69 31 85 -73 -19 0
-41 -37 0
106 -39 -15 -59 0
67 90 0
-23 -86 16 99 0
81 -34 -80 -44 0
49 -82 0
-4 -98 -50 12 36 0
-2 -59 0
-89 -73 0
-47 14 0
71 -31 85 -54 -44 0
-91 99 108 -92 8 36 0
-30 47 1 91 0
76 71 4 -90 -2 0
-99 78 0
-29 32 -84 0
-37 -96 17 0
-59 -93 -23 28 0
59 71 -2 33 0
38 -97 -88 59 0
78 84 -98 85 0
25 -61 0
87 -13 -17 93 0
14 -85 -81 79 92 0
108 0
